8037041579816587903507,12,1,2,015,15,1,2,03,6,1,2,015,4,1,2,06,7,1,2,07,10,1,2,02,6,1,2,012,7,1,2,08,7,1,2,010,15,1,2,04,3,1,2,02,3,1,2,09,11,1,2,013,7,1,2,08,11,1,2,012,6,1,2,09,14,1,2,010,1,1,2,05,4,1,2,08,8,1,2,015,2,1,2,01,10,1,2,04,13,1,2,06,9,1,2,013,12,1,2,01,9,1,2,04,1,1,2,07,2,1,2,014,10,1,2,015,9,1,2,011,8,1,2,07,14,1,2,010,15,1,2,010,2,1,2,02,6,1,2,01,8,1,2,04,7,1,2,012,12,1,2,09,10,1,2,03,5,1,2,09,8,1,2,012,1,1,2,015,2,1,2,03,13,1,2,013,6,1,2,09,14,1,2,03,1,1,2,08,11,1,2,01,11,1,2,02,3,1,2,0